NAME: cluster_9
TYPE: TSP
DIMENSION: 12
EDGE_WEIGHT_TYPE: EUC_2D
NODE_COORD_SECTION
1 12000.00 16000.00
2 4779.18 13963.31
3 11632.15 13308.78
4 10564.63 21481.99
5 13616.18 12600.59
6 7047.50 11923.63
7 14708.24 11243.96
8 4881.07 15237.36
9 9644.17 11362.11
10 14921.71 12754.25
11 7210.12 13159.47
12 11404.19 17022.31
EOF
